language ESSENCE' 1.0
letting w be 9
letting n be 54
letting noCrates be 1
letting noGoals be 1
letting pInit be 20
letting stps be 8
letting crates be [30]
letting goals be [13]
letting noWalls be 26
letting walls be [0, 1, 2, 3, 4, 5, 6, 7, 8, 9, 17, 18, 26, 27, 35, 36, 44, 45, 46, 47, 48, 49, 50, 51, 52, 53]